; benchmark generated from python API
(set-info :status unknown)
(declare-fun W_S1_V3 () Bool)
(declare-fun DISJ_W_S1_R_S1 () Bool)
(declare-fun R_E1_V6 () Bool)
(declare-fun W_S1_V6 () Bool)
(declare-fun R_E2_V6 () Bool)
(declare-fun W_S1_V1 () Bool)
(declare-fun R_S1_V6 () Bool)
(declare-fun R_S1_V4 () Bool)
(declare-fun R_S1_V5 () Bool)
(declare-fun R_S1_V2 () Bool)
(declare-fun R_S1_V3 () Bool)
(declare-fun R_S1_V1 () Bool)
(declare-fun R_E2_V4 () Bool)
(declare-fun R_E2_V2 () Bool)
(declare-fun R_E1_V5 () Bool)
(declare-fun R_E2_V5 () Bool)
(declare-fun W_S1_V5 () Bool)
(declare-fun W_S1_V4 () Bool)
(declare-fun W_S1_V2 () Bool)
(declare-fun R_E1_V3 () Bool)
(declare-fun R_E1_V1 () Bool)
(declare-fun R_E2_V3 () Bool)
(declare-fun R_E2_V1 () Bool)
(declare-fun DISJ_W_S1_R_E1 () Bool)
(declare-fun DISJ_W_S1_R_E2 () Bool)
(assert
 (let (($x2160 (not DISJ_W_S1_R_S1)))
 (let (($x2149 (not (and W_S1_V6 R_E1_V6))))
 (let (($x406 (not (and W_S1_V6 R_E2_V6))))
 (let (($x4248 (forall ((V2_0 Int) )(forall ((V5_0 Int) )(forall ((V4_0 Int) )(forall ((V6_0 Int) )(forall ((MW_S1_V1 Bool) )(forall ((MW_S1_V3 Bool) )(forall ((MW_S1_V2 Bool) )(forall ((MW_S1_V5 Bool) )(forall ((MW_S1_V4 Bool) )(forall ((MW_S1_V6 Bool) )(forall ((S1_V1_!8487 Int) )(forall ((S1_V1_!8493 Int) )(forall ((S1_V1_!8500 Int) )(forall ((S1_V1_!8509 Int) )(forall ((S1_V1_!8515 Int) )(forall ((S1_V3_!8488 Int) )(forall ((S1_V3_!8494 Int) )(forall ((S1_V3_!8501 Int) )(forall ((S1_V3_!8510 Int) )(forall ((S1_V3_!8516 Int) )(forall ((S1_V2_!8489 Int) )(forall ((S1_V2_!8495 Int) )(forall ((S1_V2_!8502 Int) )(forall ((S1_V2_!8511 Int) )(forall ((S1_V2_!8517 Int) )(forall ((E1_!8484 Int) )(forall ((E1_!8506 Int) )(forall ((E1_!8508 Int) )(forall ((S1_V5_!8490 Int) )(forall ((S1_V5_!8496 Int) )(forall ((S1_V5_!8503 Int) )(forall ((S1_V5_!8512 Int) )(forall ((S1_V5_!8518 Int) )(forall ((E2_!8485 Int) )(forall ((E2_!8486 Int) )(forall ((E2_!8499 Int) )(forall ((E2_!8507 Int) )(forall ((S1_V4_!8491 Int) )(forall ((S1_V4_!8497 Int) )(forall ((S1_V4_!8504 Int) )(forall ((S1_V4_!8513 Int) )(forall ((S1_V4_!8519 Int) )(forall ((S1_V6_!8492 Int) )(forall ((S1_V6_!8498 Int) )(forall ((S1_V6_!8505 Int) )(forall ((S1_V6_!8514 Int) )(forall ((S1_V6_!8520 Int) )(let ((?x1783 (ite MW_S1_V1 S1_V1_!8509 E1_!8508)))
 (let ((?x2092 (+ 1 ?x1783)))
 (let ((?x5726 (ite MW_S1_V1 S1_V1_!8515 ?x2092)))
 (let ((?x1894 (ite MW_S1_V1 S1_V1_!8493 E1_!8484)))
 (let ((?x5903 (+ 1 ?x1894)))
 (let ((?x2915 (ite MW_S1_V1 S1_V1_!8500 ?x5903)))
 (let (($x3827 (and (= ?x2915 ?x5726) (= (ite MW_S1_V3 S1_V3_!8501 E2_!8499) (ite MW_S1_V3 S1_V3_!8516 E2_!8507)) (= (ite MW_S1_V2 S1_V2_!8502 V2_0) (ite MW_S1_V2 S1_V2_!8517 V2_0)) (= (ite MW_S1_V5 S1_V5_!8503 V5_0) (ite MW_S1_V5 S1_V5_!8518 V5_0)) (= (ite MW_S1_V4 S1_V4_!8504 V4_0) (ite MW_S1_V4 S1_V4_!8519 V4_0)) (= (ite MW_S1_V6 S1_V6_!8505 V6_0) (ite MW_S1_V6 S1_V6_!8520 V6_0)))))
 (let (($x4905 (>= (ite MW_S1_V3 S1_V3_!8494 (+ 1 (ite MW_S1_V3 S1_V3_!8488 E2_!8486))) (+ (- 1) (ite MW_S1_V4 S1_V4_!8497 V4_0)))))
 (let (($x2001 (and (not (<= V4_0 E2_!8485)) (not (<= V2_0 E1_!8484)) (not (<= V4_0 E2_!8486)) (not (<= (ite MW_S1_V4 S1_V4_!8491 V4_0) (+ 1 (ite MW_S1_V3 S1_V3_!8488 E2_!8486)))) $x4905 (not (<= (ite MW_S1_V2 S1_V2_!8495 V2_0) ?x5903)) (not (<= (ite MW_S1_V4 S1_V4_!8497 V4_0) E2_!8499)) (>= (ite MW_S1_V3 S1_V3_!8501 E2_!8499) (+ (- 1) (ite MW_S1_V4 S1_V4_!8504 V4_0))) (>= ?x2915 (+ (- 1) (ite MW_S1_V2 S1_V2_!8502 V2_0))) (not (<= V2_0 E1_!8506)) (not (<= V4_0 E2_!8507)) (not (<= V2_0 E1_!8508)) (not (<= (ite MW_S1_V2 S1_V2_!8511 V2_0) ?x2092)) (>= ?x5726 (+ (- 1) (ite MW_S1_V2 S1_V2_!8517 V2_0))) (>= (ite MW_S1_V3 S1_V3_!8516 E2_!8507) (+ (- 1) (ite MW_S1_V4 S1_V4_!8519 V4_0))))))
 (let (($x4811 (= S1_V6_!8520 S1_V6_!8514)))
 (let (($x1207 (not R_S1_V6)))
 (let (($x3364 (or $x1207 (= (ite MW_S1_V6 S1_V6_!8514 V6_0) V6_0))))
 (let (($x5764 (not R_S1_V4)))
 (let (($x2259 (or $x5764 (= (ite MW_S1_V4 S1_V4_!8513 V4_0) V4_0))))
 (let (($x1316 (not R_S1_V5)))
 (let (($x2145 (or $x1316 (= (ite MW_S1_V5 S1_V5_!8512 V5_0) V5_0))))
 (let (($x2049 (not R_S1_V2)))
 (let (($x2612 (or $x2049 (= (ite MW_S1_V2 S1_V2_!8511 V2_0) V2_0))))
 (let (($x4966 (and (or (not R_S1_V1) (= ?x1783 (+ (- 1) E1_!8508))) (or (not R_S1_V3) (= (ite MW_S1_V3 S1_V3_!8510 E2_!8507) E2_!8507)) $x2612 $x2145 $x2259 $x3364)))
 (let (($x3944 (not $x4966)))
 (let (($x2130 (and (or (not R_S1_V1) (= ?x1783 (+ (- 1) E1_!8484))) (or (not R_S1_V3) (= (ite MW_S1_V3 S1_V3_!8510 E2_!8507) E2_!8486)) $x2612 $x2145 $x2259 $x3364)))
 (let (($x1885 (not $x2130)))
 (let (($x4718 (= S1_V6_!8505 S1_V6_!8520)))
 (let (($x839 (and (or (not R_S1_V1) (= ?x1894 ?x1783)) (or (not R_S1_V3) (= E2_!8499 (ite MW_S1_V3 S1_V3_!8510 E2_!8507))) (or $x2049 (= (ite MW_S1_V2 S1_V2_!8495 V2_0) (ite MW_S1_V2 S1_V2_!8511 V2_0))) (or $x1316 (= (ite MW_S1_V5 S1_V5_!8496 V5_0) (ite MW_S1_V5 S1_V5_!8512 V5_0))) (or $x5764 (= (ite MW_S1_V4 S1_V4_!8497 V4_0) (ite MW_S1_V4 S1_V4_!8513 V4_0))) (or $x1207 (= (ite MW_S1_V6 S1_V6_!8498 V6_0) (ite MW_S1_V6 S1_V6_!8514 V6_0))))))
 (let (($x4557 (not $x839)))
 (let (($x227 (= S1_V6_!8505 S1_V6_!8514)))
 (let ((?x2579 (ite MW_S1_V6 S1_V6_!8498 V6_0)))
 (let (($x4927 (= ?x2579 V6_0)))
 (let (($x2048 (or $x1207 $x4927)))
 (let ((?x704 (ite MW_S1_V4 S1_V4_!8497 V4_0)))
 (let (($x982 (= ?x704 V4_0)))
 (let (($x1953 (or $x5764 $x982)))
 (let (($x3208 (or $x1316 (= (ite MW_S1_V5 S1_V5_!8496 V5_0) V5_0))))
 (let ((?x3021 (ite MW_S1_V2 S1_V2_!8495 V2_0)))
 (let (($x3820 (= ?x3021 V2_0)))
 (let (($x4799 (or $x2049 $x3820)))
 (let (($x4881 (and (or (not R_S1_V1) (= ?x1894 (+ (- 1) E1_!8508))) (or (not R_S1_V3) (= E2_!8499 E2_!8507)) $x4799 $x3208 $x1953 $x2048)))
 (let (($x2666 (not $x4881)))
 (let (($x703 (= S1_V6_!8505 S1_V6_!8498)))
 (let (($x5825 (and (or (not R_S1_V1) (= ?x1894 (+ (- 1) (ite MW_S1_V1 S1_V1_!8487 E1_!8484)))) (or (not R_S1_V3) (= E2_!8499 (+ 1 (ite MW_S1_V3 S1_V3_!8488 E2_!8486)))) (or $x2049 (= ?x3021 (ite MW_S1_V2 S1_V2_!8489 V2_0))) (or $x1316 (= (ite MW_S1_V5 S1_V5_!8496 V5_0) (ite MW_S1_V5 S1_V5_!8490 V5_0))) (or $x5764 (= ?x704 (ite MW_S1_V4 S1_V4_!8491 V4_0))) (or $x1207 (= ?x2579 (ite MW_S1_V6 S1_V6_!8492 V6_0))))))
 (let (($x1113 (not $x5825)))
 (let (($x580 (and (or (not R_S1_V1) (= ?x1894 (+ (- 1) E1_!8484))) (or (not R_S1_V3) (= E2_!8499 E2_!8486)) $x4799 $x3208 $x1953 $x2048)))
 (let (($x2246 (not $x580)))
 (let (($x5854 (= S1_V6_!8498 S1_V6_!8520)))
 (let (($x3483 (not R_S1_V3)))
 (let (($x2994 (or $x3483 (= (ite MW_S1_V3 S1_V3_!8488 E2_!8486) (+ (- 1) (ite MW_S1_V3 S1_V3_!8510 E2_!8507))))))
 (let (($x2893 (and (or (not R_S1_V1) (= (ite MW_S1_V1 S1_V1_!8487 E1_!8484) ?x2092)) $x2994 (or $x2049 (= (ite MW_S1_V2 S1_V2_!8489 V2_0) (ite MW_S1_V2 S1_V2_!8511 V2_0))) (or $x1316 (= (ite MW_S1_V5 S1_V5_!8490 V5_0) (ite MW_S1_V5 S1_V5_!8512 V5_0))) (or $x5764 (= (ite MW_S1_V4 S1_V4_!8491 V4_0) (ite MW_S1_V4 S1_V4_!8513 V4_0))) (or $x1207 (= (ite MW_S1_V6 S1_V6_!8492 V6_0) (ite MW_S1_V6 S1_V6_!8514 V6_0))))))
 (let (($x6079 (not $x2893)))
 (let (($x2468 (= S1_V6_!8498 S1_V6_!8514)))
 (let (($x3361 (or $x1207 (= (ite MW_S1_V6 S1_V6_!8492 V6_0) V6_0))))
 (let (($x2603 (or $x5764 (= (ite MW_S1_V4 S1_V4_!8491 V4_0) V4_0))))
 (let (($x1030 (or $x1316 (= (ite MW_S1_V5 S1_V5_!8490 V5_0) V5_0))))
 (let (($x846 (or $x2049 (= (ite MW_S1_V2 S1_V2_!8489 V2_0) V2_0))))
 (let (($x3560 (and (or (not R_S1_V1) (= (ite MW_S1_V1 S1_V1_!8487 E1_!8484) E1_!8508)) (or $x3483 (= (ite MW_S1_V3 S1_V3_!8488 E2_!8486) (+ (- 1) E2_!8507))) $x846 $x1030 $x2603 $x3361)))
 (let (($x5995 (not $x3560)))
 (let (($x769 (and (or (not R_S1_V1) (= (ite MW_S1_V1 S1_V1_!8487 E1_!8484) E1_!8484)) (or $x3483 (= (ite MW_S1_V3 S1_V3_!8488 E2_!8486) (+ (- 1) E2_!8486))) $x846 $x1030 $x2603 $x3361)))
 (let (($x4610 (not $x769)))
 (let (($x1191 (not (and (or (not R_S1_V1) (= E1_!8484 E1_!8508)) (or $x3483 (= E2_!8486 E2_!8507))))))
 (let (($x670 (= S1_V4_!8519 S1_V4_!8504)))
 (let (($x153 (and (or (not R_S1_V1) (= ?x1783 ?x1894)) (or $x3483 (= (ite MW_S1_V3 S1_V3_!8510 E2_!8507) E2_!8499)) (or $x2049 (= (ite MW_S1_V2 S1_V2_!8511 V2_0) ?x3021)) (or $x1316 (= (ite MW_S1_V5 S1_V5_!8512 V5_0) (ite MW_S1_V5 S1_V5_!8496 V5_0))) (or $x5764 (= (ite MW_S1_V4 S1_V4_!8513 V4_0) ?x704)) (or $x1207 (= (ite MW_S1_V6 S1_V6_!8514 V6_0) ?x2579)))))
 (let (($x2875 (not $x153)))
 (let (($x5838 (and (or (not R_S1_V1) (= ?x1783 (+ (- 1) (ite MW_S1_V1 S1_V1_!8487 E1_!8484)))) (or $x3483 (= (ite MW_S1_V3 S1_V3_!8510 E2_!8507) (+ 1 (ite MW_S1_V3 S1_V3_!8488 E2_!8486)))) (or $x2049 (= (ite MW_S1_V2 S1_V2_!8511 V2_0) (ite MW_S1_V2 S1_V2_!8489 V2_0))) (or $x1316 (= (ite MW_S1_V5 S1_V5_!8512 V5_0) (ite MW_S1_V5 S1_V5_!8490 V5_0))) (or $x5764 (= (ite MW_S1_V4 S1_V4_!8513 V4_0) (ite MW_S1_V4 S1_V4_!8491 V4_0))) (or $x1207 (= (ite MW_S1_V6 S1_V6_!8514 V6_0) (ite MW_S1_V6 S1_V6_!8492 V6_0))))))
 (let (($x554 (not $x5838)))
 (let (($x5830 (= S1_V4_!8513 S1_V4_!8504)))
 (let (($x2229 (= V6_0 ?x2579)))
 (let (($x5922 (or $x1207 $x2229)))
 (let (($x2549 (= V4_0 ?x704)))
 (let (($x1973 (or $x5764 $x2549)))
 (let (($x6018 (or $x1316 (= V5_0 (ite MW_S1_V5 S1_V5_!8496 V5_0)))))
 (let (($x2397 (= V2_0 ?x3021)))
 (let (($x5776 (or $x2049 $x2397)))
 (let (($x3008 (and (or (not R_S1_V1) (= E1_!8508 ?x5903)) (or $x3483 (= E2_!8507 E2_!8499)) $x5776 $x6018 $x1973 $x5922)))
 (let (($x886 (not $x3008)))
 (let (($x2061 (not (and (or (not R_S1_V1) (= E1_!8508 E1_!8484)) (or $x3483 (= E2_!8507 E2_!8486))))))
 (let (($x2688 (and (or (not R_S1_V1) (= (ite MW_S1_V1 S1_V1_!8487 E1_!8484) ?x5903)) (or $x3483 (= (ite MW_S1_V3 S1_V3_!8488 E2_!8486) (+ (- 1) E2_!8499))) (or $x2049 (= (ite MW_S1_V2 S1_V2_!8489 V2_0) ?x3021)) (or $x1316 (= (ite MW_S1_V5 S1_V5_!8490 V5_0) (ite MW_S1_V5 S1_V5_!8496 V5_0))) (or $x5764 (= (ite MW_S1_V4 S1_V4_!8491 V4_0) ?x704)) (or $x1207 (= (ite MW_S1_V6 S1_V6_!8492 V6_0) ?x2579)))))
 (let (($x3905 (not $x2688)))
 (let (($x1672 (= E2_!8507 E2_!8499)))
 (let (($x1513 (and (or (not R_E2_V2) $x2397) (or (not R_E2_V4) $x2549) (or (not R_E2_V6) $x2229))))
 (let (($x141 (not $x1513)))
 (let (($x562 (= E2_!8507 E2_!8486)))
 (let (($x2278 (= E2_!8507 E2_!8485)))
 (let (($x4952 (= E2_!8499 E2_!8486)))
 (let (($x3972 (and (or (not R_E2_V2) $x3820) (or (not R_E2_V4) $x982) (or (not R_E2_V6) $x4927))))
 (let (($x1729 (or $x1207 (= V6_0 (ite MW_S1_V6 S1_V6_!8514 V6_0)))))
 (let (($x2054 (or $x5764 (= V4_0 (ite MW_S1_V4 S1_V4_!8513 V4_0)))))
 (let (($x4781 (or $x1316 (= V5_0 (ite MW_S1_V5 S1_V5_!8512 V5_0)))))
 (let (($x3036 (or $x2049 (= V2_0 (ite MW_S1_V2 S1_V2_!8511 V2_0)))))
 (let (($x885 (and (or (not R_S1_V1) (= E1_!8508 ?x2092)) (or $x3483 (= E2_!8507 (ite MW_S1_V3 S1_V3_!8510 E2_!8507))) $x3036 $x4781 $x2054 $x1729)))
 (let (($x3189 (not $x885)))
 (let (($x1704 (and (or (not R_S1_V1) (= E1_!8484 ?x5903)) (or $x3483 (= E2_!8486 E2_!8499)) $x5776 $x6018 $x1973 $x5922)))
 (let (($x503 (not $x1704)))
 (let (($x860 (= E1_!8508 E1_!8506)))
 (let (($x1205 (= E1_!8484 E1_!8508)))
 (let (($x2560 (= E1_!8484 E1_!8506)))
 (let (($x1619 (= S1_V2_!8511 S1_V2_!8495)))
 (let (($x88 (or $x1207 (= V6_0 (ite MW_S1_V6 S1_V6_!8492 V6_0)))))
 (let (($x5000 (or $x5764 (= V4_0 (ite MW_S1_V4 S1_V4_!8491 V4_0)))))
 (let (($x2354 (or $x1316 (= V5_0 (ite MW_S1_V5 S1_V5_!8490 V5_0)))))
 (let (($x487 (or $x2049 (= V2_0 (ite MW_S1_V2 S1_V2_!8489 V2_0)))))
 (let (($x1258 (and (or (not R_S1_V1) (= E1_!8508 (ite MW_S1_V1 S1_V1_!8487 E1_!8484))) (or $x3483 (= E2_!8507 (+ 1 (ite MW_S1_V3 S1_V3_!8488 E2_!8486)))) $x487 $x2354 $x5000 $x88)))
 (let (($x5775 (not $x1258)))
 (let (($x2503 (= S1_V2_!8489 S1_V2_!8495)))
 (let (($x1170 (and (or (not R_S1_V1) (= E1_!8484 (ite MW_S1_V1 S1_V1_!8487 E1_!8484))) (or $x3483 (= E2_!8486 (+ 1 (ite MW_S1_V3 S1_V3_!8488 E2_!8486)))) $x487 $x2354 $x5000 $x88)))
 (let (($x3166 (not $x1170)))
 (let (($x588 (and (or (not R_S1_V1) (= E1_!8484 ?x2092)) (or $x3483 (= E2_!8486 (ite MW_S1_V3 S1_V3_!8510 E2_!8507))) $x3036 $x4781 $x2054 $x1729)))
 (let (($x4238 (and (or $x3166 (= S1_V1_!8487 S1_V1_!8493)) (or $x503 (= S1_V1_!8487 S1_V1_!8500)) (or $x1191 (= S1_V1_!8487 S1_V1_!8509)) (or (not $x588) (= S1_V1_!8487 S1_V1_!8515)) (or $x5995 (= S1_V1_!8493 S1_V1_!8509)) (or $x1113 (= S1_V1_!8500 S1_V1_!8493)) (or $x2666 (= S1_V1_!8500 S1_V1_!8509)) (or $x554 (= S1_V1_!8515 S1_V1_!8493)) (or $x2875 (= S1_V1_!8515 S1_V1_!8500)) (or $x3944 (= S1_V1_!8515 S1_V1_!8509)) (or $x503 (= S1_V3_!8488 S1_V3_!8501)) (or $x4610 (= S1_V3_!8494 S1_V3_!8488)) (or $x3905 (= S1_V3_!8494 S1_V3_!8501)) (or $x6079 (= S1_V3_!8494 S1_V3_!8516)) (or $x2061 (= S1_V3_!8510 S1_V3_!8488)) (or $x5775 (= S1_V3_!8510 S1_V3_!8494)) (or $x886 (= S1_V3_!8510 S1_V3_!8501)) (or $x3189 (= S1_V3_!8510 S1_V3_!8516)) (or $x1885 (= S1_V3_!8516 S1_V3_!8488)) (or $x2875 (= S1_V3_!8516 S1_V3_!8501)) (or $x3166 $x2503) (or $x2246 (= S1_V2_!8502 S1_V2_!8489)) (or $x1113 (= S1_V2_!8502 S1_V2_!8495)) (or $x2666 (= S1_V2_!8502 S1_V2_!8511)) (or $x4557 (= S1_V2_!8502 S1_V2_!8517)) (or $x2061 (= S1_V2_!8511 S1_V2_!8489)) (or $x5775 $x1619) (or $x3189 (= S1_V2_!8511 S1_V2_!8517)) (or $x1885 (= S1_V2_!8517 S1_V2_!8489)) (or $x554 (= S1_V2_!8517 S1_V2_!8495)) $x2560 $x1205 $x860 (or $x503 (= S1_V5_!8490 S1_V5_!8503)) (or $x4610 (= S1_V5_!8496 S1_V5_!8490)) (or $x3905 (= S1_V5_!8496 S1_V5_!8503)) (or $x5995 (= S1_V5_!8496 S1_V5_!8512)) (or $x6079 (= S1_V5_!8496 S1_V5_!8518)) (or $x2061 (= S1_V5_!8512 S1_V5_!8490)) (or $x886 (= S1_V5_!8512 S1_V5_!8503)) (or $x3189 (= S1_V5_!8512 S1_V5_!8518)) (or $x1885 (= S1_V5_!8518 S1_V5_!8490)) (or $x2875 (= S1_V5_!8518 S1_V5_!8503)) (= E2_!8485 E2_!8486) (or $x141 (= E2_!8485 E2_!8499)) (or (not $x3972) $x4952) $x2278 $x562 (or $x141 $x1672) (or $x4610 (= S1_V4_!8497 S1_V4_!8491)) (or $x3905 (= S1_V4_!8497 S1_V4_!8504)) (or $x5995 (= S1_V4_!8497 S1_V4_!8513)) (or $x2246 (= S1_V4_!8504 S1_V4_!8491)) (or $x2061 (= S1_V4_!8513 S1_V4_!8491)) (or $x886 $x5830) (or $x1885 (= S1_V4_!8519 S1_V4_!8491)) (or $x554 (= S1_V4_!8519 S1_V4_!8497)) (or $x2875 $x670) (or $x3944 (= S1_V4_!8519 S1_V4_!8513)) (or $x1191 (= S1_V6_!8492 S1_V6_!8514)) (or $x4610 (= S1_V6_!8498 S1_V6_!8492)) (or $x5995 $x2468) (or $x6079 $x5854) (or $x2246 (= S1_V6_!8505 S1_V6_!8492)) (or $x1113 $x703) (or $x2666 $x227) (or $x4557 $x4718) (or $x1885 (= S1_V6_!8520 S1_V6_!8492)) (or $x3944 $x4811) (or (not MW_S1_V1) W_S1_V1) (or (not MW_S1_V3) W_S1_V3) (not MW_S1_V2) (not MW_S1_V4) (or (not MW_S1_V6) W_S1_V6))))
 (or (not $x4238) (not $x2001) $x3827))))))))))))))))))))))))))))))))))))))))))))))))))))))))))))))))))))))))))))))))))))))))))))))))))))))))))))
 )
 )
 )
 )
 )
 )
 )
 )
 )
 )
 )
 )
 )
 )
 )
 )
 )
 )
 )
 )
 )
 )
 )
 )
 )
 )
 )
 )
 )
 )
 )
 )
 )
 )
 )
 )
 )
 )
 )
 )
 )
 )
 )
 )
 )
 )
 ))
 (let (($x5110 (not R_E1_V5)))
 (let (($x3295 (and W_S1_V6 R_S1_V6)))
 (let (($x2393 (and W_S1_V3 R_S1_V3)))
 (let (($x5870 (and W_S1_V1 R_S1_V1)))
 (let (($x2050 (= DISJ_W_S1_R_S1 (not (or $x5870 $x2393 R_S1_V5 $x3295)))))
 (let (($x2528 (not R_E2_V5)))
 (let (($x3483 (not R_S1_V3)))
 (let (($x1420 (not W_S1_V3)))
 (let (($x1670 (or DISJ_W_S1_R_S1 $x1420 $x3483)))
 (let (($x3130 (or DISJ_W_S1_R_S1 (not W_S1_V1))))
 (let (($x1951 (not W_S1_V4)))
 (let (($x4282 (not W_S1_V2)))
 (let (($x5961 (not R_E1_V3)))
 (let (($x3914 (not R_E1_V1)))
 (let (($x1664 (not R_E2_V3)))
 (let (($x3424 (not R_E2_V1)))
 (let (($x2292 (and DISJ_W_S1_R_E2 DISJ_W_S1_R_E1 $x3424 $x1664 $x3914 $x5961 $x4282 $x1951 $x3130 $x1670 W_S1_V5 $x2528 $x2050 $x5110 $x4248 $x406 $x2149)))
 (and $x2292 $x2160 W_S1_V3)))))))))))))))))))))))
(check-sat)
